(declare-fun var0 () String)
(declare-fun var1 () String)
(declare-fun var2 () String)
(declare-fun var3 () String)
(declare-fun var4 () String)
(declare-fun var5 () String)
(declare-fun var6 () String)
(declare-fun var7 () String)
(declare-fun var8 () String)
(declare-fun var9 () String)
(declare-fun var10 () String)
(declare-fun var11 () String)
(declare-fun var12 () String)
(declare-fun var13 () String)
(declare-fun var14 () String)
(declare-fun var15 () String)
(declare-fun var16 () String)
(declare-fun var17 () String)
(declare-fun var18 () String)
(declare-fun var19 () String)
(declare-fun var20 () String)
(declare-fun var21 () String)
(declare-fun var22 () String)
(declare-fun var23 () String)
(declare-fun var24 () String)
(declare-fun var25 () String)
(declare-fun var26 () String)
(declare-fun var27 () String)
(declare-fun var28 () String)
(declare-fun var29 () String)
(declare-fun var30 () String)
(declare-fun var31 () String)
(declare-fun var32 () String)
(declare-fun var33 () String)
(declare-fun var34 () String)
(declare-fun var35 () String)
(declare-fun var36 () String)
(declare-fun var37 () String)
(declare-fun var38 () String)
(declare-fun var39 () String)
(declare-fun var40 () String)
(declare-fun var41 () String)
(declare-fun var42 () String)
(declare-fun var43 () String)
(declare-fun var44 () String)
(declare-fun var45 () String)
(declare-fun var46 () String)
(declare-fun var47 () String)
(declare-fun var48 () String)
(declare-fun var49 () String)
(declare-fun var50 () String)
(declare-fun var51 () String)
(declare-fun var52 () String)
(declare-fun var53 () String)
(declare-fun var54 () String)
(declare-fun var55 () String)
(declare-fun var56 () String)
(declare-fun var57 () String)
(declare-fun var58 () String)
(declare-fun var59 () String)
(declare-fun var60 () String)
(assert (= var0 (str.++ var1 var2)))
(assert (= var2 (str.++ var3 var4)))
(assert (= var4 (str.++ var5 var6)))
(assert (= var6 (str.++ var7 var8)))
(assert (= var8 (str.++ var9 var10)))
(assert (= var10 (str.++ var11 var12)))
(assert (= var12 (str.++ var13 var14)))
(assert (= var14 (str.++ var15 var16)))
(assert (= var16 (str.++ var17 var18)))
(assert (= var18 (str.++ var19 var20)))
(assert (= var20 (str.++ var21 var22)))
(assert (= var22 (str.++ var23 var24)))
(assert (= var24 (str.++ var25 var26)))
(assert (= var26 (str.++ var27 var28)))
(assert (= var28 (str.++ var29 var30)))
(assert (= var30 (str.++ var31 var32)))
(assert (= var32 (str.++ var33 var34)))
(assert (= var34 (str.++ var35 var36)))
(assert (= var36 (str.++ var37 var38)))
(assert (= var38 (str.++ var39 var40)))
(assert (= var40 (str.++ var41 var42)))
(assert (= var42 (str.++ var43 var44)))
(assert (= var44 (str.++ var45 var46)))
(assert (= var46 (str.++ var47 var48)))
(assert (= var48 (str.++ var49 var50)))
(assert (= var50 (str.++ var51 var52)))
(assert (= var52 (str.++ var53 var54)))
(assert (= var54 (str.++ var55 var56)))
(assert (= var56 (str.++ var57 var58)))
(assert (= var58 (str.++ var59 var60)))
(assert (= var0 "solution"))
(assert (= "F" (str.at var50 615)))
(assert (= "h" (str.at var49 569)))
(assert (= "p" (str.at var53 22)))
(assert (= "(" (str.at var40 581)))
(assert (= "^" (str.at var34 592)))
(assert (= "2" (str.at var12 111)))
(assert (= "+" (str.at var38 796)))
(assert (= "B" (str.at var57 748)))
(assert (= "b" (str.at var8 80)))
(assert (= "~" (str.at var18 586)))
(assert (= "H" (str.at var33 490)))
(assert (= "4" (str.at var32 127)))
(assert (= "`" (str.at var20 427)))
(assert (= "*" (str.at var13 303)))
(assert (= "[" (str.at var31 396)))
(assert (= "H" (str.at var49 432)))
(assert (= "s" (str.at var35 995)))
(assert (= "r" (str.at var38 667)))
(assert (= "m" (str.at var7 448)))
(assert (= "6" (str.at var29 419)))
(assert (= "v" (str.at var56 928)))
(assert (= "1" (str.at var28 444)))
(assert (= "[" (str.at var13 18)))
(assert (= ":" (str.at var24 969)))
(assert (= "?" (str.at var22 111)))
(assert (= "J" (str.at var50 321)))
(assert (= "\\" (str.at var6 398)))
(assert (= "E" (str.at var5 479)))
(assert (= "^" (str.at var38 984)))
(assert (= "O" (str.at var7 232)))
(assert (= "a" (str.at var22 302)))
(assert (= "+" (str.at var48 921)))
(assert (= "A" (str.at var43 779)))
(assert (= "9" (str.at var26 530)))
(assert (= "o" (str.at var18 231)))
(assert (= "F" (str.at var9 552)))
(assert (= "W" (str.at var50 282)))
(assert (= "a" (str.at var29 835)))
(assert (= ">" (str.at var6 217)))
(assert (= ";" (str.at var48 7)))
(assert (= "<" (str.at var25 525)))
(assert (= "q" (str.at var53 468)))
(assert (= ">" (str.at var10 663)))
(assert (= "2" (str.at var55 435)))
(assert (= ":" (str.at var57 785)))
(assert (= "." (str.at var40 525)))
(assert (= ":" (str.at var40 582)))
(assert (= "i" (str.at var42 320)))
(assert (= "%" (str.at var22 202)))
(assert (= "t" (str.at var49 651)))
(assert (= "Y" (str.at var24 451)))
(assert (= "-" (str.at var23 485)))
(assert (= "h" (str.at var16 152)))
(assert (= "U" (str.at var55 673)))
(assert (= "P" (str.at var54 898)))
(assert (= "O" (str.at var32 718)))
(assert (= "d" (str.at var18 490)))
(assert (= "{" (str.at var47 968)))
(assert (= "N" (str.at var5 574)))
(assert (= "j" (str.at var42 223)))
(assert (= "P" (str.at var40 818)))
(assert (= "C" (str.at var0 799)))
(assert (= "$" (str.at var12 266)))
(assert (= "4" (str.at var3 348)))
(assert (= "m" (str.at var29 683)))
(assert (= "E" (str.at var41 267)))
(assert (= "]" (str.at var59 16)))
(assert (= "=" (str.at var31 629)))
(assert (= """" (str.at var46 568)))
(assert (= "l" (str.at var2 666)))
(assert (= "q" (str.at var18 916)))
(assert (= "}" (str.at var2 713)))
(assert (= "%" (str.at var3 24)))
(assert (= ";" (str.at var2 54)))
(assert (= "q" (str.at var19 312)))
(assert (= "5" (str.at var19 641)))
(assert (= "q" (str.at var48 120)))
(assert (= "8" (str.at var44 239)))
(assert (= "W" (str.at var14 499)))
(assert (= "6" (str.at var0 656)))
(assert (= "X" (str.at var45 708)))
(assert (= "s" (str.at var8 602)))
(assert (= "_" (str.at var10 855)))
(assert (= "i" (str.at var0 96)))
(assert (= "g" (str.at var34 660)))
(assert (= "b" (str.at var8 613)))
(assert (= "9" (str.at var47 280)))
(assert (= "d" (str.at var27 96)))
(assert (= "B" (str.at var60 161)))
(assert (= "#" (str.at var31 152)))
(assert (= ">" (str.at var52 974)))
(assert (= "!" (str.at var54 694)))
(assert (= "R" (str.at var58 403)))
(assert (= "j" (str.at var18 998)))
(assert (= "B" (str.at var39 436)))
(assert (= "w" (str.at var39 511)))
(assert (= "H" (str.at var14 15)))
(assert (= "v" (str.at var24 61)))
(assert (= ")" (str.at var35 281)))
(assert (= "$" (str.at var58 573)))
(assert (= "v" (str.at var19 840)))
(assert (= "_" (str.at var46 852)))
(assert (= ":" (str.at var58 932)))
(assert (= "i" (str.at var51 946)))
(assert (= "\\" (str.at var25 212)))
(assert (= "%" (str.at var36 413)))
(assert (= "}" (str.at var29 379)))
(assert (= "o" (str.at var54 648)))
(assert (= "M" (str.at var31 810)))
(assert (= "`" (str.at var52 711)))
(assert (= "I" (str.at var50 569)))
(assert (= "^" (str.at var24 684)))
(assert (= "i" (str.at var3 952)))
(assert (= "i" (str.at var7 126)))
(assert (= "8" (str.at var1 729)))
(assert (= "n" (str.at var48 84)))
(assert (= "@" (str.at var40 273)))
(assert (= "b" (str.at var4 26)))
(assert (= "r" (str.at var25 593)))
(assert (= "r" (str.at var22 116)))
(assert (= "u" (str.at var58 378)))
(assert (= "]" (str.at var17 692)))
(assert (= "&" (str.at var54 858)))
(assert (= ")" (str.at var10 657)))
(assert (= "l" (str.at var40 665)))
(assert (= "S" (str.at var48 350)))
(assert (= "_" (str.at var4 84)))
(assert (= "," (str.at var23 866)))
(assert (= "Q" (str.at var55 811)))
(assert (= "'" (str.at var38 982)))
(assert (= "H" (str.at var18 377)))
(assert (= "u" (str.at var27 776)))
(assert (= "'" (str.at var58 83)))
(assert (= "R" (str.at var52 153)))
(assert (= "j" (str.at var54 176)))
(assert (= "7" (str.at var57 731)))
(assert (= ")" (str.at var4 338)))
(assert (= "<" (str.at var29 509)))
(assert (= "E" (str.at var56 569)))
(assert (= "W" (str.at var1 541)))
(assert (= "=" (str.at var42 704)))
(assert (= "%" (str.at var58 434)))
(assert (= "_" (str.at var55 864)))
(assert (= "S" (str.at var35 46)))
(assert (= "|" (str.at var6 466)))
(assert (= "%" (str.at var19 540)))
(assert (= "2" (str.at var18 109)))
(assert (= "s" (str.at var44 978)))
(assert (= "$" (str.at var15 700)))
(assert (= "l" (str.at var58 234)))
(assert (= "[" (str.at var35 461)))
(assert (= "E" (str.at var58 948)))
(assert (= "6" (str.at var10 941)))
(assert (= "]" (str.at var18 34)))
(assert (= "i" (str.at var52 615)))
(assert (= "L" (str.at var35 630)))
(assert (= "W" (str.at var41 28)))
(assert (= "y" (str.at var15 570)))
(assert (= "C" (str.at var1 65)))
(assert (= "." (str.at var18 61)))
(assert (= "6" (str.at var7 693)))
(assert (= "m" (str.at var25 235)))
(assert (= "f" (str.at var15 43)))
(assert (= "@" (str.at var44 819)))
(assert (= "x" (str.at var44 188)))
(assert (= "I" (str.at var30 428)))
(assert (= "+" (str.at var21 487)))
(assert (= "s" (str.at var14 755)))
(assert (= "1" (str.at var58 136)))
(assert (= "C" (str.at var1 885)))
(assert (= "y" (str.at var57 102)))
(assert (= "U" (str.at var51 984)))
(assert (= "b" (str.at var36 31)))
(assert (= "X" (str.at var47 475)))
(assert (= ";" (str.at var0 692)))
(assert (= "Y" (str.at var14 42)))
(assert (= "P" (str.at var36 874)))
(assert (= "%" (str.at var42 816)))
(assert (= ":" (str.at var10 614)))
(assert (= "w" (str.at var35 942)))
(assert (= "G" (str.at var8 205)))
(assert (= "=" (str.at var35 226)))
(assert (= "b" (str.at var57 604)))
(assert (= "#" (str.at var58 951)))
(assert (= "E" (str.at var42 817)))
(assert (= "c" (str.at var23 440)))
(assert (= "|" (str.at var50 984)))
(assert (= "M" (str.at var29 949)))
(assert (= "u" (str.at var55 867)))
(assert (= "+" (str.at var47 424)))
(assert (= "D" (str.at var40 769)))
(assert (= "Z" (str.at var54 912)))
(assert (= "[" (str.at var3 533)))
(assert (= "x" (str.at var27 267)))
(assert (= "/" (str.at var47 904)))
(assert (= "0" (str.at var50 167)))
(assert (= "R" (str.at var30 449)))
(assert (= "o" (str.at var29 690)))
(assert (= "=" (str.at var48 5)))
(assert (= "i" (str.at var27 937)))
(assert (= "g" (str.at var15 593)))
(assert (= ")" (str.at var1 467)))
(assert (= "N" (str.at var17 817)))
(assert (= "[" (str.at var47 425)))
(assert (= "+" (str.at var7 596)))
(assert (= "j" (str.at var39 437)))
(assert (= "=" (str.at var47 842)))
(assert (= "q" (str.at var60 599)))
(assert (= "0" (str.at var31 825)))
(assert (= "v" (str.at var45 367)))
(assert (= "b" (str.at var11 405)))
(assert (= "E" (str.at var29 821)))
(assert (= "O" (str.at var34 485)))
(assert (= "7" (str.at var56 278)))
(assert (= "6" (str.at var32 101)))
(assert (= "%" (str.at var54 538)))
(assert (= "d" (str.at var0 823)))
(assert (= "8" (str.at var51 5)))
(assert (= "m" (str.at var28 842)))
(assert (= "C" (str.at var3 465)))
(assert (= "=" (str.at var33 672)))
(assert (= "3" (str.at var24 912)))
(assert (= "$" (str.at var3 419)))
(assert (= "." (str.at var36 915)))
(assert (= "x" (str.at var17 371)))
(assert (= "l" (str.at var57 312)))
(assert (= "I" (str.at var26 774)))
(assert (= "U" (str.at var27 12)))
(assert (= "v" (str.at var42 208)))
(assert (= "#" (str.at var23 938)))
(assert (= "\\" (str.at var53 998)))
(assert (= "l" (str.at var30 423)))
(assert (= "(" (str.at var20 813)))
(assert (= "P" (str.at var55 155)))
(assert (= "l" (str.at var3 900)))
(assert (= "G" (str.at var44 378)))
(assert (= "Q" (str.at var45 873)))
(assert (= "4" (str.at var29 473)))
(assert (= "w" (str.at var25 938)))
(assert (= "," (str.at var19 94)))
(assert (= "h" (str.at var14 408)))
(assert (= "K" (str.at var40 293)))
(assert (= "<" (str.at var36 582)))
(assert (= "T" (str.at var59 318)))
(assert (= "0" (str.at var28 831)))
(assert (= "]" (str.at var38 206)))
(assert (= "G" (str.at var26 767)))
(assert (= "0" (str.at var27 67)))
(assert (= "K" (str.at var55 319)))
(assert (= "P" (str.at var22 60)))
(assert (= "?" (str.at var11 591)))
(assert (= "e" (str.at var55 32)))
(assert (= "=" (str.at var50 957)))
(assert (= "z" (str.at var3 921)))
(assert (= "V" (str.at var25 183)))
(assert (= "s" (str.at var38 487)))
(assert (= "@" (str.at var43 315)))
(assert (= "s" (str.at var2 170)))
(assert (= "o" (str.at var19 967)))
(assert (= "j" (str.at var9 760)))
(assert (= "O" (str.at var32 918)))
(assert (= "k" (str.at var46 872)))
(assert (= "o" (str.at var20 455)))
(assert (= "J" (str.at var2 969)))
(assert (= "#" (str.at var5 441)))
(assert (= "V" (str.at var60 254)))
(assert (= "9" (str.at var5 312)))
(assert (= ";" (str.at var48 971)))
(assert (= "]" (str.at var36 258)))
(assert (= "/" (str.at var12 520)))
(assert (= "F" (str.at var53 888)))
(assert (= "s" (str.at var23 904)))
(assert (= "T" (str.at var43 465)))
(assert (= "h" (str.at var10 927)))
(assert (= "d" (str.at var59 377)))
(assert (= "i" (str.at var22 470)))
(assert (= "7" (str.at var55 843)))
(assert (= "A" (str.at var55 215)))
(assert (= "X" (str.at var15 723)))
(assert (= "@" (str.at var34 302)))
(assert (= "t" (str.at var5 713)))
(assert (= "q" (str.at var58 844)))
(assert (= "$" (str.at var3 850)))
(assert (= "L" (str.at var11 872)))
(assert (= "o" (str.at var37 666)))
(assert (= "b" (str.at var58 548)))
(assert (= "u" (str.at var35 827)))
(assert (= "S" (str.at var40 793)))
(assert (= "N" (str.at var3 434)))
(assert (= "L" (str.at var36 893)))
(assert (= "m" (str.at var43 258)))
(assert (= "T" (str.at var29 184)))
(assert (= "n" (str.at var9 743)))
(assert (= "9" (str.at var24 28)))
(assert (= "*" (str.at var60 64)))
(assert (= "l" (str.at var2 949)))
(assert (= "*" (str.at var31 578)))
(assert (= """" (str.at var10 830)))
(assert (= "=" (str.at var50 319)))
(assert (= "z" (str.at var9 736)))
(assert (= "J" (str.at var50 702)))
(assert (= "&" (str.at var47 997)))
(assert (= "*" (str.at var38 95)))
(assert (= """" (str.at var2 260)))
(assert (= "G" (str.at var3 790)))
(assert (= "9" (str.at var4 11)))
(assert (= "q" (str.at var47 485)))
(assert (= ">" (str.at var34 789)))
(assert (= "M" (str.at var17 519)))
(assert (= "O" (str.at var19 339)))
(assert (= "|" (str.at var18 796)))
(assert (= "(" (str.at var17 667)))
(assert (= "^" (str.at var36 788)))
(assert (= "H" (str.at var58 814)))
(assert (= "]" (str.at var51 478)))
(assert (= "," (str.at var51 57)))
(assert (= "r" (str.at var54 950)))
(assert (= "Q" (str.at var29 87)))
(assert (= "%" (str.at var36 322)))
(assert (= "<" (str.at var44 902)))
(assert (= "b" (str.at var33 189)))
(assert (= "b" (str.at var15 921)))
(assert (= "*" (str.at var2 106)))
(assert (= "+" (str.at var17 238)))
(assert (= ":" (str.at var54 613)))
(assert (= "e" (str.at var45 646)))
(assert (= "A" (str.at var35 654)))
(assert (= "#" (str.at var2 893)))
(assert (= "P" (str.at var26 98)))
(assert (= "F" (str.at var42 606)))
(assert (= "S" (str.at var38 762)))
(assert (= "d" (str.at var14 162)))
(assert (= "'" (str.at var27 539)))
(assert (= "G" (str.at var30 818)))
(assert (= "0" (str.at var26 141)))
(assert (= "P" (str.at var30 288)))
(assert (= "+" (str.at var47 802)))
(assert (= "k" (str.at var4 161)))
(assert (= "T" (str.at var25 588)))
(assert (= "e" (str.at var31 848)))
(assert (= ">" (str.at var49 776)))
(assert (= "X" (str.at var15 930)))
(assert (= "w" (str.at var35 426)))
(assert (= """" (str.at var33 377)))
(assert (= ")" (str.at var31 643)))
(assert (= "6" (str.at var2 262)))
(assert (= "P" (str.at var37 343)))
(assert (= "9" (str.at var21 751)))
(assert (= "&" (str.at var7 910)))
(assert (= ")" (str.at var7 3)))
(assert (= "\\" (str.at var34 223)))
(assert (= "}" (str.at var5 507)))
(assert (= "{" (str.at var38 803)))
(assert (= "n" (str.at var53 544)))
(assert (= "d" (str.at var35 559)))
(assert (= "e" (str.at var6 35)))
(assert (= "H" (str.at var1 415)))
(assert (= "1" (str.at var39 923)))
(assert (= "'" (str.at var30 230)))
(assert (= "q" (str.at var36 86)))
(assert (= "P" (str.at var6 884)))
(assert (= "^" (str.at var2 158)))
(assert (= "|" (str.at var7 336)))
(assert (= "(" (str.at var39 248)))
(assert (= "H" (str.at var18 666)))
(assert (= "-" (str.at var31 475)))
(assert (= "@" (str.at var9 268)))
(assert (= "5" (str.at var20 188)))
(assert (= "@" (str.at var10 902)))
(assert (= "'" (str.at var58 902)))
(assert (= "." (str.at var28 458)))
(assert (= "b" (str.at var29 274)))
(assert (= "=" (str.at var5 697)))
(assert (= "!" (str.at var5 130)))
(assert (= "1" (str.at var50 341)))
(assert (= "E" (str.at var48 188)))
(assert (= "6" (str.at var1 558)))
(assert (= "_" (str.at var32 95)))
(assert (= "m" (str.at var39 306)))
(assert (= "K" (str.at var31 79)))
(assert (= "s" (str.at var50 757)))
(assert (= "'" (str.at var16 624)))
(assert (= "T" (str.at var26 80)))
(assert (= "i" (str.at var53 857)))
(assert (= "o" (str.at var7 814)))
(assert (= "t" (str.at var13 630)))
(assert (= "S" (str.at var39 607)))
(assert (= "y" (str.at var9 884)))
(assert (= "N" (str.at var51 817)))
(assert (= "+" (str.at var37 605)))
(assert (= "y" (str.at var43 448)))
(assert (= "~" (str.at var8 889)))
(assert (= "O" (str.at var1 63)))
(assert (= "t" (str.at var39 826)))
(assert (= "w" (str.at var51 701)))
(assert (= "o" (str.at var52 767)))
(assert (= "[" (str.at var6 746)))
(assert (= "?" (str.at var37 184)))
(assert (= "C" (str.at var54 1000)))
(assert (= "C" (str.at var60 755)))
(assert (= "c" (str.at var36 605)))
(assert (= "V" (str.at var32 436)))
(assert (= "S" (str.at var20 953)))
(assert (= "<" (str.at var38 435)))
(assert (= "u" (str.at var40 71)))
(assert (= "D" (str.at var17 579)))
(assert (= "}" (str.at var34 568)))
(assert (= "%" (str.at var35 955)))
(assert (= "\\" (str.at var0 260)))
(assert (= "\\" (str.at var46 517)))
(assert (= "-" (str.at var1 907)))
(assert (= "o" (str.at var22 30)))
(assert (= "9" (str.at var21 121)))
(assert (= "=" (str.at var30 798)))
(assert (= ">" (str.at var38 278)))
(assert (= "1" (str.at var58 762)))
(assert (= "M" (str.at var4 403)))
(assert (= "b" (str.at var8 308)))
(assert (= "$" (str.at var34 559)))
(assert (= "#" (str.at var13 895)))
(assert (= "8" (str.at var23 594)))
(assert (= "Y" (str.at var7 761)))
(assert (= """" (str.at var42 277)))
(assert (= "}" (str.at var54 680)))
(assert (= "X" (str.at var53 403)))
(assert (= "t" (str.at var23 656)))
(assert (= "c" (str.at var31 654)))
(assert (= "z" (str.at var52 402)))
(assert (= ";" (str.at var7 538)))
(assert (= "Q" (str.at var52 922)))
(assert (= "c" (str.at var12 938)))
(assert (= "i" (str.at var57 2)))
(assert (= "0" (str.at var38 162)))
(assert (= "L" (str.at var30 603)))
(assert (= "B" (str.at var52 8)))
(assert (= "x" (str.at var17 984)))
(assert (= "V" (str.at var58 575)))
(assert (= "U" (str.at var39 280)))
(assert (= "U" (str.at var52 987)))
(assert (= "J" (str.at var17 405)))
(assert (= "'" (str.at var18 644)))
(assert (= "S" (str.at var51 190)))
(assert (= "N" (str.at var53 753)))
(assert (= "M" (str.at var5 363)))
(assert (= "=" (str.at var40 434)))
(assert (= "o" (str.at var8 90)))
(assert (= "5" (str.at var31 338)))
(assert (= "4" (str.at var31 339)))
(assert (= "@" (str.at var31 517)))
(assert (= "1" (str.at var16 556)))
(assert (= "G" (str.at var41 489)))
(assert (= "d" (str.at var20 798)))
(assert (= "t" (str.at var24 537)))
(assert (= "P" (str.at var26 513)))
(assert (= "(" (str.at var14 472)))
(assert (= "?" (str.at var42 672)))
(assert (= "P" (str.at var53 176)))
(assert (= "F" (str.at var30 566)))
(assert (= "+" (str.at var32 828)))
(assert (= "<" (str.at var16 60)))
(assert (= "?" (str.at var42 967)))
(assert (= "h" (str.at var13 723)))
(assert (= "U" (str.at var55 214)))
(assert (= "e" (str.at var55 415)))
(assert (= "-" (str.at var54 803)))
(assert (= "$" (str.at var31 80)))
(assert (= "z" (str.at var53 737)))
(assert (= "j" (str.at var54 38)))
(assert (= "+" (str.at var28 787)))
(assert (= "'" (str.at var35 883)))
(assert (= "g" (str.at var32 871)))
(assert (= "J" (str.at var13 755)))
(assert (= "3" (str.at var30 121)))
(assert (= "^" (str.at var22 843)))
(assert (= "S" (str.at var41 876)))
(assert (= "b" (str.at var36 503)))
(assert (= "Y" (str.at var53 379)))
(assert (= "q" (str.at var3 770)))
(assert (= "W" (str.at var15 863)))
(assert (= "%" (str.at var12 704)))
(assert (= "q" (str.at var21 635)))
(assert (= "z" (str.at var26 355)))
(assert (= "-" (str.at var40 901)))
(assert (= "U" (str.at var13 962)))
(assert (= "Z" (str.at var52 355)))
(assert (= "d" (str.at var6 338)))
(assert (= "4" (str.at var16 763)))
(assert (= "=" (str.at var49 614)))
(assert (= "=" (str.at var45 421)))
(assert (= "x" (str.at var48 184)))
(assert (= "1" (str.at var53 770)))
(assert (= "V" (str.at var49 331)))
(assert (= "u" (str.at var48 224)))
(assert (= "7" (str.at var2 918)))
(assert (= "J" (str.at var60 339)))
(assert (= "b" (str.at var39 121)))
(assert (= "L" (str.at var54 841)))
(assert (= "i" (str.at var52 642)))
(assert (= "R" (str.at var57 526)))
(assert (= "%" (str.at var51 330)))
(assert (= "a" (str.at var33 867)))
(assert (= "X" (str.at var2 474)))
(assert (= "]" (str.at var4 560)))
(assert (= "p" (str.at var30 580)))
(assert (= "n" (str.at var36 522)))
(assert (= "@" (str.at var24 915)))
(assert (= "E" (str.at var14 56)))
(assert (= "^" (str.at var46 703)))
(assert (= "q" (str.at var48 743)))
(assert (= "c" (str.at var9 206)))
(assert (= "$" (str.at var35 543)))
(assert (= "_" (str.at var49 767)))
(assert (= "u" (str.at var44 781)))
(assert (= "Z" (str.at var59 424)))
(assert (= "y" (str.at var23 369)))
(assert (= "Q" (str.at var37 43)))
(assert (= "d" (str.at var55 54)))
(assert (= "0" (str.at var29 407)))
(assert (= "n" (str.at var53 958)))
(assert (= "r" (str.at var12 626)))
(assert (= "p" (str.at var0 859)))
(assert (= "]" (str.at var42 887)))
(assert (= "/" (str.at var43 975)))
(assert (= "?" (str.at var54 254)))
(assert (= "a" (str.at var0 474)))
(assert (= "K" (str.at var8 502)))
(assert (= "v" (str.at var32 610)))
(assert (= "&" (str.at var58 532)))
(assert (= "~" (str.at var46 96)))
(assert (= "h" (str.at var30 874)))
(assert (= "f" (str.at var52 924)))
(assert (= "4" (str.at var15 698)))
(assert (= "M" (str.at var22 953)))
(assert (= "r" (str.at var20 23)))
(assert (= "Z" (str.at var23 503)))
(assert (= "~" (str.at var37 481)))
(assert (= "C" (str.at var30 185)))
(assert (= "O" (str.at var25 809)))
(assert (= "j" (str.at var47 153)))
(assert (= "z" (str.at var6 541)))
(assert (= "l" (str.at var26 482)))
(assert (= "S" (str.at var19 928)))
(assert (= "s" (str.at var56 758)))
(assert (= "W" (str.at var25 835)))
(assert (= "T" (str.at var15 940)))
(assert (= "m" (str.at var54 801)))
(assert (= "_" (str.at var35 181)))
(assert (= "H" (str.at var45 784)))
(assert (= "w" (str.at var7 287)))
(assert (= "[" (str.at var43 130)))
(assert (= "Z" (str.at var46 230)))
(assert (= "m" (str.at var5 752)))
(assert (= "q" (str.at var41 934)))
(assert (= "h" (str.at var44 513)))
(assert (= "6" (str.at var15 220)))
(assert (= "Q" (str.at var47 498)))
(assert (= "k" (str.at var45 820)))
(assert (= "^" (str.at var8 160)))
(assert (= "n" (str.at var55 344)))
(assert (= "N" (str.at var38 412)))
(assert (= "I" (str.at var8 307)))
(check-sat)